  7	46
  8
  0	 26	 35	 14	 72	 81	 60	 93	
 14
  0	 28	 23	 74	 24	 69	 12	 58	 70	  4	 50	 39	 85	 93	
 20
  0	 27	 33	  5	 25	 73	 51	 40	 71	 86	 79	 36	  1	 32	 78	 44	 47	 82	 90	 93	
 20
  0	  3	 49	 13	  2	 48	 59	 31	 77	 34	 30	 21	 38	 84	 76	 80	 10	 56	 67	 93	
 16
  0	 22	 68	 29	 11	  9	 75	 16	 57	 42	 55	 62	 88	 18	 64	 93	
 14
  0	  6	  7	 52	 53	 37	 15	 83	 46	 61	 19	 65	 92	 93	
 14
  0	 41	 17	 63	 45	 87	 20	 91	  8	 66	 43	 89	 54	 93	
